7
0, 798, 820, 764, 146, 671, 789
798, 0, 757, 350, 658, 195, 182
820, 757, 0, 1035, 787, 577, 585
764, 350, 1035, 0, 619, 468, 518
146, 658, 787, 619, 0, 545, 664
671, 195, 577, 468, 545, 0, 119
789, 182, 585, 518, 664, 119, 0
